* ENCODING=ISO-8859-1
NAME          CPLEX
ROWS
 N  obj1    
 G  c1      
 G  c2      
 G  c3      
 G  c4      
 G  c5      
 G  c6      
 G  c7      
 G  c8      
 G  c9      
 G  c10     
 G  c11     
 G  c12     
 G  c13     
 G  c14     
 G  c15     
 G  c16     
 G  c17     
 G  c18     
 G  c19     
 G  c20     
 G  c21     
 G  c22     
 G  c23     
 G  c24     
 G  c25     
 G  c26     
 G  c27     
 G  c28     
 G  c29     
 G  c30     
 G  c31     
 G  c32     
 G  c33     
 G  c34     
 G  c35     
 G  c36     
 G  c37     
 G  c38     
 G  c39     
 G  c40     
 G  c41     
 G  c42     
 G  c43     
 G  c44     
 G  c45     
 G  c46     
 G  c47     
 G  c48     
 G  c49     
 G  c50     
 G  c51     
 G  c52     
 G  c53     
 G  c54     
 G  c55     
 G  c56     
 G  c57     
 G  c58     
 G  c59     
 G  c60     
COLUMNS
    MARK0000  'MARKER'                 'INTORG'
    x1        obj1                            1
    x1        c1                            655
    x1        c15                           102
    x1        c22                           659
    x1        c28                           595
    x1        c44                           539
    x1        c49                           720
    x1        c51                           890
    x1        c54                           963
    x2        obj1                            1
    x2        c6                            819
    x2        c12                           366
    x2        c25                           333
    x2        c28                           562
    x2        c30                           548
    x2        c43                           403
    x2        c46                           617
    x2        c50                           889
    x3        obj1                            1
    x3        c2                            138
    x3        c28                           473
    x3        c43                           342
    x3        c48                           760
    x3        c52                           979
    x3        c53                           632
    x4        obj1                            1
    x4        c2                            690
    x4        c3                            107
    x4        c12                           527
    x4        c36                           946
    x4        c52                           928
    x5        obj1                            1
    x5        c18                           481
    x5        c42                           603
    x5        c44                           879
    x5        c48                           782
    x5        c52                           718
    x6        obj1                            1
    x6        c7                            377
    x6        c21                           619
    x6        c22                           137
    x6        c23                           202
    x6        c39                           469
    x7        obj1                            1
    x7        c7                            682
    x7        c13                           274
    x7        c17                           432
    x7        c21                           709
    x7        c30                           143
    x7        c32                           888
    x7        c40                           639
    x7        c44                           422
    x7        c45                           824
    x7        c47                           235
    x7        c54                           701
    x8        obj1                            1
    x8        c7                            433
    x8        c40                           498
    x8        c53                           227
    x9        obj1                            1
    x9        c4                            512
    x9        c6                            143
    x9        c27                           307
    x9        c30                           265
    x9        c37                           108
    x9        c56                           991
    x10       obj1                            1
    x10       c1                            550
    x10       c4                            629
    x10       c6                            838
    x10       c9                            203
    x10       c10                           335
    x10       c11                           521
    x10       c16                           947
    x10       c26                           655
    x10       c38                           594
    x10       c44                           887
    x10       c46                           620
    x10       c48                           544
    x10       c52                           710
    x10       c56                           408
    x11       obj1                            1
    x11       c3                            532
    x11       c4                            534
    x11       c19                           864
    x11       c31                           364
    x11       c40                           669
    x11       c41                           581
    x11       c60                           744
    x12       obj1                            1
    x12       c4                            714
    x12       c6                            756
    x12       c20                           131
    x12       c23                           319
    x12       c40                           364
    x13       obj1                            1
    x13       c11                           518
    x13       c20                           455
    x13       c24                           386
    x13       c29                           931
    x13       c40                           195
    x13       c45                           995
    x14       obj1                            1
    x14       c15                           364
    x14       c16                           675
    x14       c20                           784
    x14       c25                           334
    x14       c28                           902
    x14       c29                           198
    x14       c42                           736
    x15       obj1                            1
    x15       c9                            206
    x15       c10                           290
    x15       c16                           691
    x15       c30                           325
    x15       c31                           711
    x15       c34                           220
    x15       c43                           835
    x15       c51                           171
    x16       obj1                            1
    x16       c5                            257
    x16       c40                           188
    x16       c46                           918
    x16       c59                           119
    x17       obj1                            1
    x17       c1                            501
    x17       c9                            857
    x17       c30                           607
    x17       c34                           943
    x17       c50                           568
    x18       obj1                            1
    x18       c17                           781
    x18       c26                           819
    x18       c35                           238
    x18       c42                           790
    x18       c55                           546
    x19       obj1                            1
    x19       c12                           770
    x19       c24                           436
    x19       c32                           730
    x19       c44                           130
    x19       c47                           421
    x19       c57                           968
    x20       obj1                            1
    x20       c5                            802
    x20       c6                            555
    x20       c11                           817
    x20       c15                           872
    x20       c17                           266
    x20       c23                           549
    x20       c55                           126
    x21       obj1                            1
    x21       c3                            613
    x21       c6                            980
    x21       c13                           263
    x21       c28                           638
    x21       c29                           786
    x21       c44                           138
    x21       c46                           692
    x22       obj1                            1
    x22       c11                           802
    x22       c22                           775
    x22       c23                           363
    x22       c35                           559
    x22       c38                           416
    x23       obj1                            1
    x23       c1                            178
    x23       c4                            609
    x23       c5                            512
    x23       c20                           127
    x23       c53                           246
    x24       obj1                            1
    x24       c2                            289
    x24       c8                            620
    x24       c29                           693
    x24       c31                           294
    x24       c47                           843
    x24       c49                           887
    x24       c55                           518
    x24       c58                           135
    x25       obj1                            1
    x25       c21                           136
    x25       c36                           871
    x25       c52                           225
    x25       c54                           942
    x26       obj1                            1
    x26       c2                            338
    x26       c4                            914
    x26       c6                            786
    x26       c20                           494
    x26       c33                           277
    x26       c38                           713
    x26       c43                           343
    x26       c52                           589
    x26       c57                           111
    x26       c60                           307
    x27       obj1                            1
    x27       c25                           409
    x27       c38                           495
    x27       c43                           433
    x27       c46                           248
    x27       c49                           692
    x27       c59                           147
    x28       obj1                            1
    x28       c12                           996
    x28       c27                           999
    x28       c30                           411
    x28       c40                           996
    x28       c47                           693
    x28       c57                           186
    x29       obj1                            1
    x29       c1                            414
    x29       c14                           447
    x29       c29                           807
    x29       c39                           128
    x29       c40                           806
    x29       c57                           263
    x30       obj1                            1
    x30       c3                            712
    x30       c8                            911
    x30       c12                           222
    x30       c16                           195
    x30       c34                           916
    x30       c35                           382
    x30       c49                           819
    x30       c53                           105
    x31       obj1                            1
    x31       c6                            945
    x31       c15                           840
    x31       c20                           654
    x31       c44                           737
    x31       c47                           541
    x31       c56                           114
    x32       obj1                            1
    x32       c5                            247
    x32       c17                           688
    x32       c20                           353
    x32       c28                           264
    x32       c38                           186
    x32       c42                           907
    x32       c47                           781
    x32       c52                           497
    x32       c60                           947
    x33       obj1                            1
    x33       c19                           872
    x33       c20                           767
    x33       c34                           637
    x33       c51                           245
    x34       obj1                            1
    x34       c18                           168
    x34       c50                           768
    x35       obj1                            1
    x35       c1                            782
    x35       c17                           136
    x36       obj1                            1
    x36       c1                            961
    x36       c18                           332
    x36       c52                           175
    x37       obj1                            1
    x37       c1                            867
    x37       c3                            103
    x37       c16                           590
    x37       c24                           163
    x37       c34                           444
    x37       c50                           440
    x37       c60                           661
    x38       obj1                            1
    x38       c4                            907
    x38       c39                           543
    x38       c44                           198
    x38       c47                           697
    x38       c51                           365
    x39       obj1                            1
    x39       c9                            245
    x39       c12                           742
    x39       c35                           120
    x39       c57                           304
    x39       c58                           957
    x40       obj1                            1
    x40       c2                            761
    x40       c16                           428
    x40       c26                           212
    x40       c51                           633
    x41       obj1                            1
    x41       c11                           520
    x41       c16                           118
    x41       c25                           725
    x41       c29                           403
    x41       c31                           425
    x41       c32                           782
    x41       c35                           792
    x42       obj1                            1
    x42       c14                           360
    x42       c26                           247
    x42       c33                           625
    x42       c41                           386
    x43       obj1                            1
    x43       c34                           603
    x43       c41                           763
    x44       obj1                            1
    x44       c11                           427
    x44       c15                           931
    x44       c18                           338
    x44       c19                           395
    x44       c28                           254
    x44       c48                           265
    x45       obj1                            1
    x45       c7                            286
    x45       c14                           231
    x45       c28                           240
    x45       c35                           746
    x45       c50                           564
    x46       obj1                            1
    x46       c3                            522
    x46       c12                           163
    x46       c19                           651
    x46       c27                           364
    x46       c36                           568
    x46       c37                           691
    x46       c50                           122
    x46       c57                           687
    x46       c59                           576
    x47       obj1                            1
    x47       c8                            529
    x47       c16                           700
    x47       c30                           685
    x47       c31                           923
    x47       c36                           193
    x47       c44                           995
    x47       c46                           139
    x47       c51                           295
    x47       c56                           332
    x47       c57                           799
    x48       obj1                            1
    x48       c15                           844
    x48       c17                           250
    x48       c18                           661
    x48       c19                           826
    x48       c38                           698
    x48       c53                           647
    x49       obj1                            1
    x49       c10                           313
    x49       c26                           842
    x49       c27                           290
    x49       c48                           501
    x50       obj1                            1
    x50       c3                            489
    x50       c9                            909
    x50       c32                           714
    x50       c37                           728
    x50       c51                           519
    x50       c57                           885
    x51       obj1                            1
    x51       c10                           788
    x51       c15                           249
    x51       c30                           376
    x51       c60                           470
    x52       obj1                            1
    x52       c5                            750
    x52       c10                           372
    x52       c47                           415
    x52       c59                           264
    x53       obj1                            1
    x53       c2                            778
    x53       c11                           712
    x53       c14                           641
    x53       c15                           444
    x53       c19                           437
    x53       c37                           336
    x53       c45                           608
    x53       c46                           509
    x53       c51                           868
    x54       obj1                            1
    x54       c3                            762
    x54       c31                           655
    x54       c38                           927
    x54       c52                           560
    x55       obj1                            1
    x55       c8                            702
    x55       c17                           810
    x55       c24                           837
    x55       c25                           422
    x55       c28                           663
    x55       c57                           456
    x56       obj1                            1
    x56       c3                            487
    x56       c9                            805
    x56       c17                           204
    x56       c18                           488
    x57       obj1                            1
    x57       c13                           842
    x57       c14                           955
    x57       c25                           105
    x57       c43                           492
    x58       obj1                            1
    x58       c2                            277
    x58       c18                           336
    x58       c26                           519
    x58       c30                           971
    x58       c58                           539
    x59       obj1                            1
    x59       c2                            329
    x59       c5                            311
    x59       c9                            435
    x59       c27                           534
    x59       c32                           267
    x59       c39                           410
    x59       c51                           334
    x60       obj1                            1
    x60       c2                            779
    x60       c15                           603
    x60       c16                           949
    x60       c33                           208
    x60       c34                           935
    x60       c35                           963
    x60       c36                           911
    x60       c40                           392
    x60       c43                           805
    x60       c46                           546
    x60       c47                           617
    x60       c49                           777
    MARK0001  'MARKER'                 'INTEND'
RHS
    rhs       c1                           2454
    rhs       c2                           2190
    rhs       c3                           2164
    rhs       c4                           2410
    rhs       c5                           1440
    rhs       c6                           2911
    rhs       c7                            889
    rhs       c8                           1381
    rhs       c9                           1830
    rhs       c10                          1049
    rhs       c11                          2159
    rhs       c12                          1893
    rhs       c13                           690
    rhs       c14                          1317
    rhs       c15                          2625
    rhs       c16                          2647
    rhs       c17                          1784
    rhs       c18                          1402
    rhs       c19                          2023
    rhs       c20                          1883
    rhs       c21                           732
    rhs       c22                           786
    rhs       c23                           717
    rhs       c24                           911
    rhs       c25                          1164
    rhs       c26                          1647
    rhs       c27                          1247
    rhs       c28                          2296
    rhs       c29                          1909
    rhs       c30                          2166
    rhs       c31                          1686
    rhs       c32                          1691
    rhs       c33                           555
    rhs       c34                          2349
    rhs       c35                          1900
    rhs       c36                          1745
    rhs       c37                           932
    rhs       c38                          2015
    rhs       c39                           775
    rhs       c40                          2374
    rhs       c41                           865
    rhs       c42                          1518
    rhs       c43                          1827
    rhs       c44                          2463
    rhs       c45                          1214
    rhs       c46                          2145
    rhs       c47                          2622
    rhs       c48                          1426
    rhs       c49                          1948
    rhs       c50                          1676
    rhs       c51                          2160
    rhs       c52                          2691
    rhs       c53                           929
    rhs       c54                          1303
    rhs       c55                           595
    rhs       c56                           923
    rhs       c57                          2330
    rhs       c58                           816
    rhs       c59                           553
    rhs       c60                          1565
BOUNDS
 LI bnd       x1        0
 LI bnd       x2        0
 LI bnd       x3        0
 LI bnd       x4        0
 LI bnd       x5        0
 LI bnd       x6        0
 LI bnd       x7        0
 LI bnd       x8        0
 LI bnd       x9        0
 LI bnd       x10       0
 LI bnd       x11       0
 LI bnd       x12       0
 LI bnd       x13       0
 LI bnd       x14       0
 LI bnd       x15       0
 LI bnd       x16       0
 LI bnd       x17       0
 LI bnd       x18       0
 LI bnd       x19       0
 LI bnd       x20       0
 LI bnd       x21       0
 LI bnd       x22       0
 LI bnd       x23       0
 LI bnd       x24       0
 LI bnd       x25       0
 LI bnd       x26       0
 LI bnd       x27       0
 LI bnd       x28       0
 LI bnd       x29       0
 LI bnd       x30       0
 LI bnd       x31       0
 LI bnd       x32       0
 LI bnd       x33       0
 LI bnd       x34       0
 LI bnd       x35       0
 LI bnd       x36       0
 LI bnd       x37       0
 LI bnd       x38       0
 LI bnd       x39       0
 LI bnd       x40       0
 LI bnd       x41       0
 LI bnd       x42       0
 LI bnd       x43       0
 LI bnd       x44       0
 LI bnd       x45       0
 LI bnd       x46       0
 LI bnd       x47       0
 LI bnd       x48       0
 LI bnd       x49       0
 LI bnd       x50       0
 LI bnd       x51       0
 LI bnd       x52       0
 LI bnd       x53       0
 LI bnd       x54       0
 LI bnd       x55       0
 LI bnd       x56       0
 LI bnd       x57       0
 LI bnd       x58       0
 LI bnd       x59       0
 LI bnd       x60       0
ENDATA
